************************************************************************
file with basedata            : n/a
initial value random generator: n/a
************************************************************************
projects                      :  1
jobs (incl. supersource/sink ):  32
horizon                       :  163
RESOURCES
  - renewable                 :  4   R
  - nonrenewable              :  0   N
  - doubly constrained        :  0   D
************************************************************************
PROJECT INFORMATION:
pronr.  #jobs rel.date duedate tardcost  MPM-Time
    1     30      0       48       14       48
************************************************************************
PRECEDENCE RELATIONS:
jobnr.    #modes  #successors   successors
   1        1          3           2   3   4
   2        1          3           6   7  11
   3        1          3           5   8  10
   4        1          3          12  13  17
   5        1          1          16
   6        1          2           9  14
   7        1          1          12
   8        1          1          24
   9        1          2          20  28
  10        1          2          19  25
  11        1          1          27
  12        1          1          23
  13        1          1          23
  14        1          2          15  22
  15        1          2          18  21
  16        1          2          20  22
  17        1          1          18
  18        1          1          26
  19        1          1          30
  20        1          1          27
  21        1          1          28
  22        1          1          25
  23        1          2          25  31
  24        1          2          29  31
  25        1          1          28
  26        1          1          30
  27        1          2          29  31
  28        1          1          30
  29        1          1          32
  30        1          1          32
  31        1          1          32
  32        1          0        
************************************************************************
REQUESTS/DURATIONS:
jobnr. mode duration  R 1  R 2  R 3  R 4
------------------------------------------------------------------------
  1      1     0    
  2      1     7       1   1   1   1   1   1   1
                      10  10  10   5  10  10  10
                       9   9   9   5   9   9   9
                       9   9   9   5   9   9   9
  3      1     3       6   6   6
                       5   5   5
                       5   5   5
                      10  10  10
  4      1     6       4   2   4   4   4   4
                       5   3   5   5   5   5
                       4   2   4   4   4   4
                       1   1   1   1   1   1
  5      1     3       5   5   3
                       7   7   4
                       3   3   2
                       6   6   3
  6      1     3       7   4   7
                      10   5  10
                       5   3   5
                       8   4   8
  7      1     3       5   5  10
                       3   3   6
                       4   4   7
                       1   1   2
  8      1    10       6   3   6   3   6   6   6   6   6   6
                       9   5   9   5   9   9   9   9   9   9
                       9   5   9   5   9   9   9   9   9   9
                       2   1   2   1   2   2   2   2   2   2
  9      1     1       3
                       5
                       3
                       4
 10      1     5       3   3   3   2   2
                       4   4   4   2   2
                       5   5   5   3   3
                       6   6   6   3   3
 11      1     4       8   8   8   8
                       4   4   4   4
                       8   8   8   8
                       8   8   8   8
 12      1     5       7   7   7   7   7
                       7   7   7   7   7
                       9   9   9   9   9
                       2   2   2   2   2
 13      1     5       4   4   4   4   2
                       5   5   5   5   3
                       9   9   9   9   5
                       8   8   8   8   4
 14      1     8       5   5   5   5   3   5   5   5
                       5   5   5   5   3   5   5   5
                       5   5   5   5   3   5   5   5
                       5   5   5   5   3   5   5   5
 15      1     9       3   3   3   3   2   3   3   2   3
                       5   5   5   5   3   5   5   3   5
                       7   7   7   7   4   7   7   4   7
                       4   4   4   4   2   4   4   2   4
 16      1     5       5   5   5   5   5
                       5   5   5   5   5
                       2   2   2   2   2
                       6   6   6   6   6
 17      1     8       1   1   1   1   1   1   1   1
                      10  10  10  10   5  10   5  10
                       8   8   8   8   4   8   4   8
                       8   8   8   8   4   8   4   8
 18      1    10       6   6   6   6   6   6   6   6   3   6
                       2   2   2   2   2   2   2   2   1   2
                       8   8   8   8   8   8   8   8   4   8
                       5   5   5   5   5   5   5   5   3   5
 19      1    10       2   2   2   2   1   1   2   2   2   2
                       4   4   4   4   2   2   4   4   4   4
                       9   9   9   9   5   5   9   9   9   9
                       1   1   1   1   1   1   1   1   1   1
 20      1    10       6   3   3   6   6   6   6   3   6   6
                       2   1   1   2   2   2   2   1   2   2
                       5   3   3   5   5   5   5   3   5   5
                       6   3   3   6   6   6   6   3   6   6
 21      1     2       2   1
                       2   1
                       8   4
                       1   1
 22      1     3       3   3   2
                       9   9   5
                       9   9   5
                       8   8   4
 23      1     9       5   5   5   5   5   5   5   5   5
                      10  10  10  10  10  10  10  10  10
                       1   1   1   1   1   1   1   1   1
                       3   3   3   3   3   3   3   3   3
 24      1     5       2   2   2   2   2
                       4   4   4   4   4
                       2   2   2   2   2
                       3   3   3   3   3
 25      1     1       6
                       9
                       3
                       9
 26      1     8       9   5   9   5   9   9   9   9
                       4   2   4   2   4   4   4   4
                       6   3   6   3   6   6   6   6
                       1   1   1   1   1   1   1   1
 27      1     6       7   7   7   7   7   7
                       1   1   1   1   1   1
                       6   6   6   6   6   6
                       3   3   3   3   3   3
 28      1     7       2   2   2   2   2   2   2
                       8   8   8   8   8   8   8
                       1   1   1   1   1   1   1
                       3   3   3   3   3   3   3
 29      1     1       8
                       4
                       7
                       2
 30      1     3       6   6   6
                       6   6   6
                       2   2   2
                       3   3   3
 31      1     3       3   3   3
                       8   8   8
                      10  10  10
                       4   4   4
 32      1     0    
************************************************************************
RESOURCEAVAILABILITIES:
  R 1  R 2  R 3  R 4

  34  34  34  34  17  34  34  34  34  34  34  17  34  34  17  34  34  34  34  34  34  34  17  34  34  34  34  34  17  34  34  34  34  17  34  34  34  34  17  34  34  34  34  17  17  34  34  17  34  17  34  34  34  34  34  34  34  34  34  34  17  34  34  34  34  34  17  17  34  34  34  17  17  34  34  34  34  17  34  34  34  34  34  34  17  34  34  34  34  17  17  34  17  34  34  34  34  34  17  34  17  17  34  34  34  34  34  17  34  34  34  17  34  17  17  17  34  17  34  34  17  17  34  34  34  17  17  34  34  34  34  17  34  34  34  17  17  34  34  34  34  34  17  34  17  17  34  34  34  17  34  34  17  34  34  34  34  34  17  17  34  17  34

  41  41  41  41  21  41  41  41  41  41  41  21  41  41  21  41  41  41  41  41  41  41  21  41  41  41  41  41  21  41  41  41  41  21  41  41  41  41  21  41  41  41  41  21  21  41  41  21  41  21  41  41  41  41  41  41  41  41  41  41  21  41  41  41  41  41  21  21  41  41  41  21  21  41  41  41  41  21  41  41  41  41  41  41  21  41  41  41  41  21  21  41  21  41  41  41  41  41  21  41  21  21  41  41  41  41  41  21  41  41  41  21  41  21  21  21  41  21  41  41  21  21  41  41  41  21  21  41  41  41  41  21  41  41  41  21  21  41  41  41  41  41  21  41  21  21  41  41  41  21  41  41  21  41  41  41  41  41  21  21  41  21  41

  46  46  46  46  23  46  46  46  46  46  46  23  46  46  23  46  46  46  46  46  46  46  23  46  46  46  46  46  23  46  46  46  46  23  46  46  46  46  23  46  46  46  46  23  23  46  46  23  46  23  46  46  46  46  46  46  46  46  46  46  23  46  46  46  46  46  23  23  46  46  46  23  23  46  46  46  46  23  46  46  46  46  46  46  23  46  46  46  46  23  23  46  23  46  46  46  46  46  23  46  23  23  46  46  46  46  46  23  46  46  46  23  46  23  23  23  46  23  46  46  23  23  46  46  46  23  23  46  46  46  46  23  46  46  46  23  23  46  46  46  46  46  23  46  23  23  46  46  46  23  46  46  23  46  46  46  46  46  23  23  46  23  46

  37  37  37  37  19  37  37  37  37  37  37  19  37  37  19  37  37  37  37  37  37  37  19  37  37  37  37  37  19  37  37  37  37  19  37  37  37  37  19  37  37  37  37  19  19  37  37  19  37  19  37  37  37  37  37  37  37  37  37  37  19  37  37  37  37  37  19  19  37  37  37  19  19  37  37  37  37  19  37  37  37  37  37  37  19  37  37  37  37  19  19  37  19  37  37  37  37  37  19  37  19  19  37  37  37  37  37  19  37  37  37  19  37  19  19  19  37  19  37  37  19  19  37  37  37  19  19  37  37  37  37  19  37  37  37  19  19  37  37  37  37  37  19  37  19  19  37  37  37  19  37  37  19  37  37  37  37  37  19  19  37  19  37

************************************************************************
